Total weight: 1567.5077784036912
Route 1: 0 82 59 14 5 45 2 47 16 15 11 73 79 7 8 6 78 53 12 46 3 1 4 60 17 13 0 
Route 2: 0 42 39 36 72 33 31 29 27 28 76 19 23 21 18 51 49 22 20 50 34 32 26 89 48 24 25 77 58 0 
Route 3: 0 92 95 63 62 71 61 44 40 38 41 81 96 54 37 35 43 68 70 100 0 
Route 4: 0 90 94 67 30 85 84 56 0 
Route 5: 0 65 64 83 52 75 87 86 57 99 9 10 97 74 66 91 93 80 0 
Route 6: 0 69 98 88 55 0 
